\ENCODING=ISO-8859-1
\Problem name: ilog.cplex

Maximize
 obj: 807 x(0)#0 + 445 x(1)#1 + 673 x(2)#2 + 559 x(3)#3 + 763 x(4)#4
      + 725 x(5)#5 + 752 x(6)#6 + 1051 x(7)#7 + 1011 x(8)#8 + 450 x(9)#9
      + 599 x(10)#10 + 581 x(11)#11 + 934 x(12)#12 + 833 x(13)#13
      + 802 x(14)#14 + 661 x(15)#15 + 845 x(16)#16 + 856 x(17)#17
      + 704 x(18)#18 + 769 x(19)#19 + 600 x(20)#20 + 1091 x(21)#21
      + 687 x(22)#22 + 832 x(23)#23 + 650 x(24)#24 + 916 x(25)#25
      + 939 x(26)#26 + 518 x(27)#27 + 1190 x(28)#28 + 678 x(29)#29
      + 326 x(30)#30 + 1060 x(31)#31 + 804 x(32)#32 + 1095 x(33)#33
      + 457 x(34)#34 + 505 x(35)#35 + 828 x(36)#36 + 917 x(37)#37
      + 786 x(38)#38 + 561 x(39)#39 + 1041 x(40)#40 + 929 x(41)#41
      + 946 x(42)#42 + 347 x(43)#43 + 684 x(44)#44 + 504 x(45)#45
      + 698 x(46)#46 + 784 x(47)#47 + 840 x(48)#48 + 677 x(49)#49
      + 571 x(50)#50 + 753 x(51)#51 + 501 x(52)#52 + 656 x(53)#53
      + 899 x(54)#54 + 580 x(55)#55 + 877 x(56)#56 + 1057 x(57)#57
      + 998 x(58)#58 + 1054 x(59)#59 + 776 x(60)#60 + 643 x(61)#61
      + 1073 x(62)#62 + 1068 x(63)#63 + 691 x(64)#64 + 616 x(65)#65
      + 812 x(66)#66 + 752 x(67)#67 + 898 x(68)#68 + 457 x(69)#69
      + 849 x(70)#70 + 907 x(71)#71 + 575 x(72)#72 + 1139 x(73)#73
      + 1039 x(74)#74 + 729 x(75)#75 + 389 x(76)#76 + 775 x(77)#77
      + 835 x(78)#78 + 586 x(79)#79 + 624 x(80)#80 + 575 x(81)#81
      + 874 x(82)#82 + 1007 x(83)#83 + 787 x(84)#84 + 574 x(85)#85
      + 666 x(86)#86 + 796 x(87)#87 + 743 x(88)#88 + 767 x(89)#89
      + 599 x(90)#90 + 1046 x(91)#91 + 647 x(92)#92 + 782 x(93)#93
      + 535 x(94)#94 + 924 x(95)#95 + 748 x(96)#96 + 718 x(97)#97
      + 855 x(98)#98 + 1118 x(99)#99
Subject To
 c1: 196 x(0)#0 + 780 x(1)#1 + 104 x(2)#2 + 74 x(3)#3 + 440 x(4)#4 + 177 x(5)#5
     + 34 x(6)#6 + 694 x(7)#7 + 708 x(8)#8 + 499 x(9)#9 + 912 x(10)#10
     + 309 x(11)#11 + 366 x(12)#12 + 137 x(13)#13 + 149 x(14)#14 + 190 x(15)#15
     + 636 x(16)#16 + 188 x(17)#17 + 647 x(18)#18 + 400 x(19)#19 + 331 x(20)#20
     + 676 x(21)#21 + 292 x(22)#22 + 952 x(23)#23 + 761 x(24)#24 + 957 x(25)#25
     + 151 x(26)#26 + 34 x(27)#27 + 419 x(28)#28 + 169 x(29)#29 + 359 x(30)#30
     + 873 x(31)#31 + 845 x(32)#32 + 316 x(33)#33 + 363 x(34)#34 + 47 x(35)#35
     + 317 x(36)#36 + 242 x(37)#37 + 487 x(38)#38 + 643 x(39)#39 + 966 x(40)#40
     + 913 x(41)#41 + 813 x(42)#42 + 486 x(43)#43 + 677 x(44)#44 + 502 x(45)#45
     + 260 x(46)#46 + 36 x(47)#47 + 830 x(48)#48 + 249 x(49)#49 + 618 x(50)#50
     + 194 x(51)#51 + 76 x(52)#52 + 16 x(53)#53 + 273 x(54)#54 + 91 x(55)#55
     + 379 x(56)#56 + 923 x(57)#57 + 922 x(58)#58 + 755 x(59)#59 + 109 x(60)#60
     + 612 x(61)#61 + 765 x(62)#62 + 984 x(63)#63 + 214 x(64)#64 + 317 x(65)#65
     + 563 x(66)#66 + 723 x(67)#67 + 769 x(68)#68 + 30 x(69)#69 + 298 x(70)#70
     + 547 x(71)#71 + 550 x(72)#72 + 325 x(73)#73 + 854 x(74)#74 + 468 x(75)#75
     + 114 x(76)#76 + 941 x(77)#77 + 503 x(78)#78 + 945 x(79)#79 + 141 x(80)#80
     + 10 x(81)#81 + 663 x(82)#82 + 47 x(83)#83 + 313 x(84)#84 + 362 x(85)#85
     + 799 x(86)#86 + 477 x(87)#87 + 807 x(88)#88 + 603 x(89)#89 + 166 x(90)#90
     + 468 x(91)#91 + 266 x(92)#92 + 188 x(93)#93 + 642 x(94)#94 + 354 x(95)#95
     + 176 x(96)#96 + 340 x(97)#97 + 738 x(98)#98 + 927 x(99)#99 <= 22986
 c2: 916 x(0)#0 + 485 x(1)#1 + 585 x(2)#2 + 316 x(3)#3 + 549 x(4)#4
     + 903 x(5)#5 + 579 x(6)#6 + 478 x(7)#7 + 148 x(8)#8 + 60 x(9)#9
     + 412 x(10)#10 + 447 x(11)#11 + 448 x(12)#12 + 359 x(13)#13 + 573 x(14)#14
     + 391 x(15)#15 + 513 x(16)#16 + 563 x(17)#17 + 630 x(18)#18 + 596 x(19)#19
     + 526 x(20)#20 + 484 x(21)#21 + 570 x(22)#22 + 782 x(23)#23 + 96 x(24)#24
     + 328 x(25)#25 + 781 x(26)#26 + 241 x(27)#27 + 619 x(28)#28 + 908 x(29)#29
     + 47 x(30)#30 + 89 x(31)#31 + 511 x(32)#32 + 662 x(33)#33 + 981 x(34)#34
     + 552 x(35)#35 + 602 x(36)#36 + 846 x(37)#37 + 123 x(38)#38 + 47 x(39)#39
     + 723 x(40)#40 + 347 x(41)#41 + 196 x(42)#42 + 61 x(43)#43 + 183 x(44)#44
     + 215 x(45)#45 + 574 x(46)#46 + 122 x(47)#47 + 549 x(48)#48 + 346 x(49)#49
     + 966 x(50)#50 + 626 x(51)#51 + 32 x(52)#52 + 480 x(53)#53 + 486 x(54)#54
     + 378 x(55)#55 + 975 x(56)#56 + 345 x(57)#57 + 416 x(58)#58 + 588 x(59)#59
     + 981 x(60)#60 + 339 x(61)#61 + 241 x(62)#62 + 715 x(63)#63 + 777 x(64)#64
     + 962 x(65)#65 + 790 x(66)#66 + 541 x(67)#67 + 598 x(68)#68 + 619 x(69)#69
     + 216 x(70)#70 + 772 x(71)#71 + 416 x(72)#72 + 940 x(73)#73 + 879 x(74)#74
     + 923 x(75)#75 + 27 x(76)#76 + 763 x(77)#77 + 712 x(78)#78 + 48 x(79)#79
     + 692 x(80)#80 + 857 x(81)#81 + 750 x(82)#82 + 966 x(83)#83 + 676 x(84)#84
     + 300 x(85)#85 + 786 x(86)#86 + 7 x(87)#87 + 447 x(88)#88 + 431 x(89)#89
     + 986 x(90)#90 + 563 x(91)#91 + 489 x(92)#92 + 682 x(93)#93 + 897 x(94)#94
     + 76 x(95)#95 + 571 x(96)#96 + 969 x(97)#97 + 828 x(98)#98 + 493 x(99)#99
     <= 26540
 c3: 512 x(0)#0 + 182 x(1)#1 + 713 x(2)#2 + 94 x(3)#3 + 203 x(4)#4 + 317 x(5)#5
     + 389 x(6)#6 + 929 x(7)#7 + 748 x(8)#8 + 451 x(9)#9 + 860 x(10)#10
     + 513 x(11)#11 + 382 x(12)#12 + 350 x(13)#13 + 904 x(14)#14 + 936 x(15)#15
     + 522 x(16)#16 + 459 x(17)#17 + 773 x(18)#18 + 29 x(19)#19 + 226 x(20)#20
     + 889 x(21)#21 + 210 x(22)#22 + 487 x(23)#23 + 148 x(24)#24 + 481 x(25)#25
     + 952 x(26)#26 + 588 x(27)#27 + 916 x(28)#28 + 146 x(29)#29 + 119 x(30)#30
     + 608 x(31)#31 + 569 x(32)#32 + 758 x(33)#33 + 61 x(34)#34 + 222 x(35)#35
     + 531 x(36)#36 + 143 x(37)#37 + 166 x(38)#38 + 664 x(39)#39 + 361 x(40)#40
     + 455 x(41)#41 + 19 x(42)#42 + 166 x(43)#43 + 228 x(44)#44 + 193 x(45)#45
     + 554 x(46)#46 + 80 x(47)#47 + 723 x(48)#48 + 123 x(49)#49 + 273 x(50)#50
     + 340 x(51)#51 + 653 x(52)#52 + 672 x(53)#53 + 250 x(54)#54 + 438 x(55)#55
     + 521 x(56)#56 + 848 x(57)#57 + 236 x(58)#58 + 435 x(59)#59 + 5 x(60)#60
     + 534 x(61)#61 + 663 x(62)#62 + 236 x(63)#63 + 544 x(64)#64 + 68 x(65)#65
     + 534 x(66)#66 + 971 x(67)#67 + 944 x(68)#68 + 657 x(69)#69 + 626 x(70)#70
     + 862 x(71)#71 + 434 x(72)#72 + 982 x(73)#73 + 315 x(74)#74 + 494 x(75)#75
     + 6 x(76)#76 + 172 x(77)#77 + 342 x(78)#78 + 326 x(79)#79 + 446 x(80)#80
     + 333 x(81)#81 + 540 x(82)#82 + 373 x(83)#83 + 546 x(84)#84 + 380 x(85)#85
     + 8 x(86)#86 + 114 x(87)#87 + 949 x(88)#88 + 318 x(89)#89 + 638 x(90)#90
     + 874 x(91)#91 + 197 x(92)#92 + 125 x(93)#93 + 204 x(94)#94 + 955 x(95)#95
     + 301 x(96)#96 + 632 x(97)#97 + 298 x(98)#98 + 229 x(99)#99 <= 22447
 c4: 459 x(0)#0 + 284 x(1)#1 + 625 x(2)#2 + 253 x(3)#3 + 88 x(4)#4 + 737 x(5)#5
     + 933 x(6)#6 + 57 x(7)#7 + 658 x(8)#8 + 949 x(9)#9 + 114 x(10)#10
     + 131 x(11)#11 + 412 x(12)#12 + 785 x(13)#13 + 888 x(14)#14 + 702 x(15)#15
     + 816 x(16)#16 + 725 x(17)#17 + 597 x(18)#18 + 738 x(19)#19 + 794 x(20)#20
     + 763 x(21)#21 + 407 x(22)#22 + 767 x(23)#23 + 485 x(24)#24 + 254 x(25)#25
     + 694 x(26)#26 + 795 x(27)#27 + 649 x(28)#28 + 162 x(29)#29 + 811 x(30)#30
     + 956 x(31)#31 + 955 x(32)#32 + 792 x(33)#33 + 299 x(34)#34 + 484 x(35)#35
     + 994 x(36)#36 + 688 x(37)#37 + 417 x(38)#38 + 487 x(39)#39 + 763 x(40)#40
     + 300 x(41)#41 + 927 x(42)#42 + 102 x(43)#43 + 356 x(44)#44 + 742 x(45)#45
     + 987 x(46)#46 + 441 x(47)#47 + 848 x(48)#48 + 66 x(49)#49 + 106 x(50)#50
     + 150 x(51)#51 + 504 x(52)#52 + 17 x(53)#53 + 149 x(54)#54 + 748 x(55)#55
     + 100 x(56)#56 + 674 x(57)#57 + 829 x(58)#58 + 942 x(59)#59 + 251 x(60)#60
     + 169 x(61)#61 + 727 x(62)#62 + 416 x(63)#63 + 248 x(64)#64 + 133 x(65)#65
     + 224 x(66)#66 + 659 x(67)#67 + 305 x(68)#68 + 298 x(69)#69 + 439 x(70)#70
     + 953 x(71)#71 + 366 x(72)#72 + 651 x(73)#73 + 350 x(74)#74 + 767 x(75)#75
     + 102 x(76)#76 + 733 x(77)#77 + 102 x(78)#78 + 5 x(79)#79 + 890 x(80)#80
     + 876 x(81)#81 + 133 x(82)#82 + 951 x(83)#83 + 773 x(84)#84 + 174 x(85)#85
     + 65 x(86)#86 + 824 x(87)#87 + 834 x(88)#88 + 713 x(89)#89 + 281 x(90)#90
     + 803 x(91)#91 + 324 x(92)#92 + 429 x(93)#93 + 687 x(94)#94 + 714 x(95)#95
     + 91 x(96)#96 + 66 x(97)#97 + 720 x(98)#98 + 803 x(99)#99 <= 26202
 c5: 260 x(0)#0 + 64 x(1)#1 + 263 x(2)#2 + 997 x(3)#3 + 613 x(4)#4 + 304 x(5)#5
     + 157 x(6)#6 + 878 x(7)#7 + 955 x(8)#8 + 245 x(9)#9 + 626 x(10)#10
     + 418 x(11)#11 + 660 x(12)#12 + 42 x(13)#13 + 719 x(14)#14 + 891 x(15)#15
     + 852 x(16)#16 + 595 x(17)#17 + 715 x(18)#18 + 539 x(19)#19 + 488 x(20)#20
     + 883 x(21)#21 + 161 x(22)#22 + 475 x(23)#23 + 795 x(24)#24 + 680 x(25)#25
     + 300 x(26)#26 + 489 x(27)#27 + 868 x(28)#28 + 304 x(29)#29 + 82 x(30)#30
     + 698 x(31)#31 + 884 x(32)#32 + 977 x(33)#33 + 209 x(34)#34 + 701 x(35)#35
     + 120 x(36)#36 + 444 x(37)#37 + 333 x(38)#38 + 412 x(39)#39 + 307 x(40)#40
     + 800 x(41)#41 + 773 x(42)#42 + 472 x(43)#43 + 512 x(44)#44 + 797 x(45)#45
     + 648 x(46)#46 + 948 x(47)#47 + 771 x(48)#48 + 671 x(49)#49 + 251 x(50)#50
     + 510 x(51)#51 + 725 x(52)#52 + 807 x(53)#53 + 863 x(54)#54 + 508 x(55)#55
     + 217 x(56)#56 + 992 x(57)#57 + 924 x(58)#58 + 221 x(59)#59 + 130 x(60)#60
     + 902 x(61)#61 + 816 x(62)#62 + 514 x(63)#63 + 216 x(64)#64 + 295 x(65)#65
     + 261 x(66)#66 + 216 x(67)#67 + 134 x(68)#68 + 134 x(69)#69 + 606 x(70)#70
     + 495 x(71)#71 + 797 x(72)#72 + 716 x(73)#73 + 352 x(74)#74 + 336 x(75)#75
     + 430 x(76)#76 + 21 x(77)#77 + 912 x(78)#78 + 17 x(79)#79 + 114 x(80)#80
     + 755 x(81)#81 + 952 x(82)#82 + 423 x(83)#83 + 610 x(84)#84 + 990 x(85)#85
     + 217 x(86)#86 + 144 x(87)#87 + 389 x(88)#88 + 862 x(89)#89 + 816 x(90)#90
     + 230 x(91)#91 + 365 x(92)#92 + 565 x(93)#93 + 168 x(94)#94 + 106 x(95)#95
     + 384 x(96)#96 + 232 x(97)#97 + 995 x(98)#98 + 766 x(99)#99 <= 26098
Bounds
 0 <= x(0)#0 <= 1
 0 <= x(1)#1 <= 1
 0 <= x(2)#2 <= 1
 0 <= x(3)#3 <= 1
 0 <= x(4)#4 <= 1
 0 <= x(5)#5 <= 1
 0 <= x(6)#6 <= 1
 0 <= x(7)#7 <= 1
 0 <= x(8)#8 <= 1
 0 <= x(9)#9 <= 1
 0 <= x(10)#10 <= 1
 0 <= x(11)#11 <= 1
 0 <= x(12)#12 <= 1
 0 <= x(13)#13 <= 1
 0 <= x(14)#14 <= 1
 0 <= x(15)#15 <= 1
 0 <= x(16)#16 <= 1
 0 <= x(17)#17 <= 1
 0 <= x(18)#18 <= 1
 0 <= x(19)#19 <= 1
 0 <= x(20)#20 <= 1
 0 <= x(21)#21 <= 1
 0 <= x(22)#22 <= 1
 0 <= x(23)#23 <= 1
 0 <= x(24)#24 <= 1
 0 <= x(25)#25 <= 1
 0 <= x(26)#26 <= 1
 0 <= x(27)#27 <= 1
 0 <= x(28)#28 <= 1
 0 <= x(29)#29 <= 1
 0 <= x(30)#30 <= 1
 0 <= x(31)#31 <= 1
 0 <= x(32)#32 <= 1
 0 <= x(33)#33 <= 1
 0 <= x(34)#34 <= 1
 0 <= x(35)#35 <= 1
 0 <= x(36)#36 <= 1
 0 <= x(37)#37 <= 1
 0 <= x(38)#38 <= 1
 0 <= x(39)#39 <= 1
 0 <= x(40)#40 <= 1
 0 <= x(41)#41 <= 1
 0 <= x(42)#42 <= 1
 0 <= x(43)#43 <= 1
 0 <= x(44)#44 <= 1
 0 <= x(45)#45 <= 1
 0 <= x(46)#46 <= 1
 0 <= x(47)#47 <= 1
 0 <= x(48)#48 <= 1
 0 <= x(49)#49 <= 1
 0 <= x(50)#50 <= 1
 0 <= x(51)#51 <= 1
 0 <= x(52)#52 <= 1
 0 <= x(53)#53 <= 1
 0 <= x(54)#54 <= 1
 0 <= x(55)#55 <= 1
 0 <= x(56)#56 <= 1
 0 <= x(57)#57 <= 1
 0 <= x(58)#58 <= 1
 0 <= x(59)#59 <= 1
 0 <= x(60)#60 <= 1
 0 <= x(61)#61 <= 1
 0 <= x(62)#62 <= 1
 0 <= x(63)#63 <= 1
 0 <= x(64)#64 <= 1
 0 <= x(65)#65 <= 1
 0 <= x(66)#66 <= 1
 0 <= x(67)#67 <= 1
 0 <= x(68)#68 <= 1
 0 <= x(69)#69 <= 1
 0 <= x(70)#70 <= 1
 0 <= x(71)#71 <= 1
 0 <= x(72)#72 <= 1
 0 <= x(73)#73 <= 1
 0 <= x(74)#74 <= 1
 0 <= x(75)#75 <= 1
 0 <= x(76)#76 <= 1
 0 <= x(77)#77 <= 1
 0 <= x(78)#78 <= 1
 0 <= x(79)#79 <= 1
 0 <= x(80)#80 <= 1
 0 <= x(81)#81 <= 1
 0 <= x(82)#82 <= 1
 0 <= x(83)#83 <= 1
 0 <= x(84)#84 <= 1
 0 <= x(85)#85 <= 1
 0 <= x(86)#86 <= 1
 0 <= x(87)#87 <= 1
 0 <= x(88)#88 <= 1
 0 <= x(89)#89 <= 1
 0 <= x(90)#90 <= 1
 0 <= x(91)#91 <= 1
 0 <= x(92)#92 <= 1
 0 <= x(93)#93 <= 1
 0 <= x(94)#94 <= 1
 0 <= x(95)#95 <= 1
 0 <= x(96)#96 <= 1
 0 <= x(97)#97 <= 1
 0 <= x(98)#98 <= 1
 0 <= x(99)#99 <= 1
Generals
 x(0)#0  x(1)#1  x(2)#2  x(3)#3  x(4)#4  x(5)#5  x(6)#6  x(7)#7  x(8)#8 
 x(9)#9  x(10)#10  x(11)#11  x(12)#12  x(13)#13  x(14)#14  x(15)#15  x(16)#16 
 x(17)#17  x(18)#18  x(19)#19  x(20)#20  x(21)#21  x(22)#22  x(23)#23 
 x(24)#24  x(25)#25  x(26)#26  x(27)#27  x(28)#28  x(29)#29  x(30)#30 
 x(31)#31  x(32)#32  x(33)#33  x(34)#34  x(35)#35  x(36)#36  x(37)#37 
 x(38)#38  x(39)#39  x(40)#40  x(41)#41  x(42)#42  x(43)#43  x(44)#44 
 x(45)#45  x(46)#46  x(47)#47  x(48)#48  x(49)#49  x(50)#50  x(51)#51 
 x(52)#52  x(53)#53  x(54)#54  x(55)#55  x(56)#56  x(57)#57  x(58)#58 
 x(59)#59  x(60)#60  x(61)#61  x(62)#62  x(63)#63  x(64)#64  x(65)#65 
 x(66)#66  x(67)#67  x(68)#68  x(69)#69  x(70)#70  x(71)#71  x(72)#72 
 x(73)#73  x(74)#74  x(75)#75  x(76)#76  x(77)#77  x(78)#78  x(79)#79 
 x(80)#80  x(81)#81  x(82)#82  x(83)#83  x(84)#84  x(85)#85  x(86)#86 
 x(87)#87  x(88)#88  x(89)#89  x(90)#90  x(91)#91  x(92)#92  x(93)#93 
 x(94)#94  x(95)#95  x(96)#96  x(97)#97  x(98)#98  x(99)#99 
End
